node 0 w: 6.16, h: 12.95
node 1 w: 4.9, h: 12.95
node 2 w: 8.2026-06-21 14:52:03 - INFO - Set parameter WLSAccessID
2026-06-21 14:52:03 - INFO - Set parameter WLSSecret
2026-06-21 14:52:03 - INFO - Set parameter LicenseID to value 2756663
2026-06-21 14:52:03 - INFO - Academic license 2756663 - for non-commercial use only - registered to hu___@sjtu.edu.cn
2026-06-21 14:52:03 - INFO - Set parameter TimeLimit to value 300
2026-06-21 14:52:03 - INFO - Set parameter MIPGap to value 0
2026-06-21 14:52:03 - INFO - Set parameter MIPFocus to value 3
2026-06-21 14:52:03 - INFO - Set parameter Heuristics to value 0.5
2026-06-21 14:52:03 - INFO - Set parameter LogToConsole to value 1
2026-06-21 14:52:03 - INFO - Gurobi Optimizer version 13.0.1 build v13.0.1rc0 (linux64 - "Ubuntu 20.04.6 LTS")
2026-06-21 14:52:03 - INFO - 
2026-06-21 14:52:03 - INFO - CPU model: AMD Ryzen 9 9950X3D 16-Core Processor, instruction set [SSE2|AVX|AVX2|AVX512]
2026-06-21 14:52:03 - INFO - Thread count: 14 physical cores, 28 logical processors, using up to 28 threads
2026-06-21 14:52:03 - INFO - 
2026-06-21 14:52:03 - INFO - Non-default parameters:
2026-06-21 14:52:03 - INFO - TimeLimit  300
2026-06-21 14:52:03 - INFO - MIPGap  0
2026-06-21 14:52:03 - INFO - Heuristics  0.5
2026-06-21 14:52:03 - INFO - MIPFocus  3
2026-06-21 14:52:03 - INFO - 
2026-06-21 14:52:03 - INFO - Academic license 2756663 - for non-commercial use only - registered to hu___@sjtu.edu.cn
2026-06-21 14:52:03 - INFO - Optimize a model with 1470 rows, 672 columns and 5013 nonzeros (Min)
2026-06-21 14:52:03 - INFO - Model fingerprint: 0x00d1ae4e
2026-06-21 14:52:03 - INFO - Model has 4 linear objective coefficients
2026-06-21 14:52:03 - INFO - Variable types: 269 continuous, 403 integer (403 binary)
2026-06-21 14:52:03 - INFO - Coefficient statistics:
2026-06-21 14:52:03 - INFO -   Matrix range     [3e-01, 8e+03]
2026-06-21 14:52:03 - INFO -   Objective range  [7e-06, 8e-02]
2026-06-21 14:52:03 - INFO -   Bounds range     [9e-01, 2e+07]
2026-06-21 14:52:03 - INFO -   RHS range        [9e-01, 3e+02]
2026-06-21 14:52:03 - INFO - 
2026-06-21 14:52:03 - INFO - Presolve removed 120 rows and 104 columns
2026-06-21 14:52:03 - INFO - Presolve time: 0.01s
2026-06-21 14:52:03 - INFO - Presolved: 1350 rows, 568 columns, 4744 nonzeros
2026-06-21 14:52:03 - INFO - Variable types: 191 continuous, 377 integer (377 binary)
2026-06-21 14:52:03 - INFO - Root relaxation presolve removed 178 rows and 46 columns
2026-06-21 14:52:03 - INFO - Root relaxation presolved: 1172 rows, 546 columns, 4334 nonzeros
2026-06-21 14:52:03 - INFO - 
2026-06-21 14:52:03 - INFO - 
2026-06-21 14:52:03 - INFO - Root relaxation: objective -3.019733e+01, 290 iterations, 0.00 seconds (0.01 work units)
2026-06-21 14:52:03 - INFO - 
2026-06-21 14:52:03 - INFO -     Nodes    |    Current Node    |     Objective Bounds      |     Work
2026-06-21 14:52:03 - INFO -  Expl Unexpl |  Obj  Depth IntInf | Incumbent    BestBd   Gap | It/Node Time
2026-06-21 14:52:03 - INFO - 
2026-06-21 14:52:03 - INFO -      0     0  -30.19733    0  155          -  -30.19733      -     -    0s
2026-06-21 14:52:03 - INFO -      0     0  -26.97958    0  167          -  -26.97958      -     -    0s
2026-06-21 14:52:03 - INFO -      0     0  -26.97958    0  163          -  -26.97958      -     -    0s
2026-06-21 14:52:03 - INFO -      0     0   -3.03504    0  167          -   -3.03504      -     -    0s
2026-06-21 14:52:03 - INFO -      0     0   -3.03504    0  134          -   -3.03504      -     -    0s
2026-06-21 14:52:03 - INFO -      0     0   -3.03504    0  134          -   -3.03504      -     -    0s
2026-06-21 14:52:04 - INFO -      0     0   -3.03504    0  108          -   -3.03504      -     -    0s
2026-06-21 14:52:04 - INFO -      0     0    1.75350    0  110          -    1.75350      -     -    0s
2026-06-21 14:52:04 - INFO -      0     0    1.75350    0  114          -    1.75350      -     -    0s
2026-06-21 14:52:04 - INFO -      0     0    1.75350    0  114          -    1.75350      -     -    0s
2026-06-21 14:52:04 - INFO -      0     0    1.75350    0  156          -    1.75350      -     -    0s
2026-06-21 14:52:04 - INFO -      0     0    1.75350    0  153          -    1.75350      -     -    0s
2026-06-21 14:52:04 - INFO -      0     0    1.75350    0  132          -    1.75350      -     -    0s
2026-06-21 14:52:04 - INFO -      0     0    1.77102    0  142          -    1.77102      -     -    0s
2026-06-21 14:52:04 - INFO -      0     0    1.77102    0  140          -    1.77102      -     -    0s
2026-06-21 14:52:04 - INFO -      0     0    1.77102    0  145          -    1.77102      -     -    0s
2026-06-21 14:52:04 - INFO -      0     0    1.77102    0  137          -    1.77102      -     -    0s
2026-06-21 14:52:04 - INFO -      0     0    1.77102    0  141          -    1.77102      -     -    0s
2026-06-21 14:52:04 - INFO -      0     0    1.82266    0  135          -    1.82266      -     -    0s
2026-06-21 14:52:04 - INFO -      0     0    1.82266    0  134          -    1.82266      -     -    0s
2026-06-21 14:52:04 - INFO -      0     0    1.82266    0  117          -    1.82266      -     -    0s
2026-06-21 14:52:04 - INFO -      0     0    1.89530    0  117          -    1.89530      -     -    0s
2026-06-21 14:52:04 - INFO -      0     0    1.89530    0  114          -    1.89530      -     -    1s
2026-06-21 14:52:05 - INFO -      0     2    1.89530    0  114          -    1.89530      -     -    2s
2026-06-21 14:52:08 - INFO -   2286  2232    3.72729   21  104          -    2.71659      -  51.2    5s
2026-06-21 14:52:13 - INFO -  11634  7422 infeasible   22               -    4.98433      -  60.0   10s
2026-06-21 14:52:18 - INFO -  17963 11014    5.48056   24   84          -    5.13429      -  58.3   15s
2026-06-21 14:52:24 - INFO -  44530 21931    6.15296   25  118          -    5.37545      -  49.9   20s
2026-06-21 14:52:28 - INFO -  46873 22997    5.64165   23  104          -    5.41653      -  50.5   25s
2026-06-21 14:52:34 - INFO -  66350 29662    7.87349   27   94          -    5.55295      -  49.4   30s
2026-06-21 14:52:38 - INFO -  114735 44627 infeasible   29               -    5.77071      -  44.6   35s
2026-06-21 14:52:44 - INFO -  131290 48857 infeasible   33               -    5.81315      -  44.9   40s
2026-06-21 14:52:48 - INFO -  151777 53818 infeasible   30               -    5.92941      -  44.4   45s
2026-06-21 14:52:53 - INFO -  163973 57587    7.81479   31   82          -    5.96389      -  44.7   50s
2026-06-21 14:52:58 - INFO -  187414 61353 infeasible   35               -    6.09048      -  45.3   55s
2026-06-21 14:53:04 - INFO -  229467 71329    6.51117   28   41          -    6.22728      -  44.1   60s
2026-06-21 14:53:08 - INFO -  233808 71905 infeasible   33               -    6.28022      -  44.3   65s
2026-06-21 14:53:13 - INFO -  255197 75872    6.59846   27   60          -    6.36120      -  44.7   70s
2026-06-21 14:53:19 - INFO -  285587 80863 infeasible   33               -    6.46191      -  44.8   75s
2026-06-21 14:53:24 - INFO -  308807 85389    7.30938   33   59          -    6.53207      -  44.5   80s
2026-06-21 14:53:28 - INFO -  313204 86464    6.69369   32   86          -    6.54750      -  44.7   85s
2026-06-21 14:53:33 - INFO -  336286 88920 infeasible   36               -    6.61958      -  45.1   90s
2026-06-21 14:53:38 - INFO -  343998 89444 infeasible   34               -    6.65813      -  45.3   95s
2026-06-21 14:53:43 - INFO -  360856 90891 infeasible   32               -    6.70864      -  45.6  100s
2026-06-21 14:53:49 - INFO -  379893 92575    7.00166   31  130          -    6.76740      -  45.9  105s
2026-06-21 14:53:54 - INFO -  398821 93655 infeasible   32               -    6.83917      -  46.1  110s
2026-06-21 14:54:00 - INFO -  404633 94031    7.28743   34   65          -    6.85351      -  46.2  116s
2026-06-21 14:54:06 - INFO -  408160 92842    9.33548   34   88          -    6.87132      -  46.3  122s
2026-06-21 14:54:09 - INFO -  443498 93808 infeasible   35               -    6.94200      -  46.5  125s
2026-06-21 14:54:14 - INFO -  477600 97098    7.44075   28   81          -    7.02821      -  46.4  130s
2026-06-21 14:54:18 - INFO -  483706 97407    7.19708   31  112          -    7.06151      -  46.5  135s
2026-06-21 14:54:24 - INFO -  493560 97843    8.07817   32   83          -    7.08504      -  46.7  140s
2026-06-21 14:54:28 - INFO -  517748 98563 infeasible   36               -    7.17279      -  47.0  145s
2026-06-21 14:54:34 - INFO -  535851 98949 infeasible   27               -    7.23106      -  47.2  150s
2026-06-21 14:54:38 - INFO -  540918 99011 infeasible   36               -    7.26079      -  47.3  155s
2026-06-21 14:54:44 - INFO -  543192 99027 infeasible   32               -    7.27193      -  47.4  160s
2026-06-21 14:54:48 - INFO -  565135 99168 infeasible   40               -    7.33475      -  47.7  165s
2026-06-21 14:54:54 - INFO -  589501 99260 infeasible   30               -    7.42551      -  48.0  170s
2026-06-21 14:54:59 - INFO -  615199 99066 infeasible   45               -    7.51074      -  48.3  175s
2026-06-21 14:55:04 - INFO -  622156 98900 infeasible   29               -    7.53092      -  48.3  180s
2026-06-21 14:55:09 - INFO -  647464 98604 infeasible   41               -    7.62482      -  48.6  185s
2026-06-21 14:55:14 - INFO -  648407 98568    8.07320   35   84          -    7.64340      -  48.7  190s
2026-06-21 14:55:18 - INFO -  652084 98387    8.08076   33   77          -    7.65457      -  48.7  195s
2026-06-21 14:55:24 - INFO -  679205 97519    8.43243   31   74          -    7.74388      -  49.0  200s
2026-06-21 14:55:29 - INFO -  700807 96704 infeasible   36               -    7.82659      -  49.2  205s
2026-06-21 14:55:34 - INFO -  723481 95565    9.63421   29   94          -    7.90949      -  49.4  210s
2026-06-21 14:55:38 - INFO -  732943 95090 infeasible   30               -    7.96051      -  49.4  215s
2026-06-21 14:55:44 - INFO -  758123 93110 infeasible   37               -    8.05682      -  49.6  220s
2026-06-21 14:55:49 - INFO -  762223 92952 infeasible   44               -    8.09068      -  49.7  225s
2026-06-21 14:55:54 - INFO -  765124 92167 infeasible   28               -    8.10145      -  49.7  230s
2026-06-21 14:55:58 - INFO -  790061 89758    8.68812   37   53          -    8.20212      -  49.9  235s
2026-06-21 14:56:04 - INFO -  808057 87569 infeasible   39               -    8.29086      -  50.0  240s
2026-06-21 14:56:08 - INFO -  821044 85904 infeasible   36               -    8.34158      -  50.1  245s
2026-06-21 14:56:13 - INFO -  846405 82572    8.56937   24  132          -    8.46723      -  50.2  250s
2026-06-21 14:56:18 - INFO -  873671 78892   10.96883   33   72          -    8.60582      -  50.3  255s
2026-06-21 14:56:24 - INFO -  887043 76964 infeasible   38               -    8.67211      -  50.4  260s
2026-06-21 14:56:28 - INFO -  900642 74991 infeasible   32               -    8.77609      -  50.4  265s
2026-06-21 14:56:34 - INFO -  901715 74539    8.82740   27   91          -    8.79403      -  50.5  271s
2026-06-21 14:56:39 - INFO -  904112 73606 infeasible   41               -    8.80464      -  50.5  276s
2026-06-21 14:56:44 - INFO -  925571 69420 infeasible   36               -    8.92581      -  50.5  280s
2026-06-21 14:56:48 - INFO -  949693 65438 infeasible   36               -    9.07727      -  50.6  285s
2026-06-21 14:56:54 - INFO -  971832 60211    9.38714   30   61          -    9.21475      -  50.6  290s
2026-06-21 14:56:58 - INFO -  995440 54770 infeasible   35               -    9.37038      -  50.6  295s
2026-06-21 14:57:03 - INFO -  1009676 51951   10.06333   33   75          -    9.50384      -  50.7  300s
2026-06-21 14:57:03 - INFO - 
2026-06-21 14:57:03 - INFO - Cutting planes:
2026-06-21 14:57:03 - INFO -   Learned: 91
2026-06-21 14:57:03 - INFO -   Gomory: 266
2026-06-21 14:57:03 - INFO -   Lift-and-project: 122
2026-06-21 14:57:03 - INFO -   Cover: 59
2026-06-21 14:57:03 - INFO -   Implied bound: 12
2026-06-21 14:57:03 - INFO -   MIR: 153
2026-06-21 14:57:03 - INFO -   Mixing: 2
2026-06-21 14:57:03 - INFO -   StrongCG: 4
2026-06-21 14:57:03 - INFO -   Flow cover: 898
2026-06-21 14:57:03 - INFO -   GUB cover: 1
2026-06-21 14:57:03 - INFO -   Inf proof: 642
2026-06-21 14:57:03 - INFO -   Zero half: 9
2026-06-21 14:57:03 - INFO -   RLT: 13
2026-06-21 14:57:03 - INFO -   Relax-and-lift: 18
2026-06-21 14:57:03 - INFO - 
2026-06-21 14:57:03 - INFO - Explored 1009998 nodes (51176047 simplex iterations) in 300.03 seconds (539.68 work units)
2026-06-21 14:57:03 - INFO - Thread count was 28 (of 28 available processors)
2026-06-21 14:57:03 - INFO - 
2026-06-21 14:57:03 - INFO - Solution count 0
2026-06-21 14:57:03 - INFO - 
2026-06-21 14:57:03 - INFO - Time limit reached
2026-06-21 14:57:03 - INFO - Best objective -, best bound 9.506906367788e+00, gap -
2026-06-21 14:57:03 - INFO - Set parameter TimeLimit to value 300
2026-06-21 14:57:03 - INFO - Set parameter MIPGap to value 0.3
2026-06-21 14:57:03 - INFO - Set parameter MIPFocus to value 3
2026-06-21 14:57:03 - INFO - Set parameter Heuristics to value 0.5
2026-06-21 14:57:03 - INFO - Set parameter LogToConsole to value 1
2026-06-21 14:57:03 - INFO - Gurobi Optimizer version 13.0.1 build v13.0.1rc0 (linux64 - "Ubuntu 20.04.6 LTS")
2026-06-21 14:57:03 - INFO - 
2026-06-21 14:57:03 - INFO - CPU model: AMD Ryzen 9 9950X3D 16-Core Processor, instruction set [SSE2|AVX|AVX2|AVX512]
2026-06-21 14:57:03 - INFO - Thread count: 14 physical cores, 28 logical processors, using up to 28 threads
2026-06-21 14:57:03 - INFO - 
2026-06-21 14:57:03 - INFO - Non-default parameters:
2026-06-21 14:57:03 - INFO - TimeLimit  300
2026-06-21 14:57:03 - INFO - MIPGap  0.3
2026-06-21 14:57:03 - INFO - Heuristics  0.5
2026-06-21 14:57:03 - INFO - MIPFocus  3
2026-06-21 14:57:03 - INFO - 
2026-06-21 14:57:03 - INFO - Academic license 2756663 - for non-commercial use only - registered to hu___@sjtu.edu.cn
2026-06-21 14:57:03 - INFO - Optimize a model with 1470 rows, 672 columns and 5013 nonzeros (Min)
2026-06-21 14:57:03 - INFO - Model fingerprint: 0x00d1ae4e
2026-06-21 14:57:03 - INFO - Model has 4 linear objective coefficients
2026-06-21 14:57:03 - INFO - Variable types: 269 continuous, 403 integer (403 binary)
2026-06-21 14:57:03 - INFO - Coefficient statistics:
2026-06-21 14:57:03 - INFO -   Matrix range     [3e-01, 8e+03]
2026-06-21 14:57:03 - INFO -   Objective range  [7e-06, 8e-02]
2026-06-21 14:57:03 - INFO -   Bounds range     [9e-01, 2e+07]
2026-06-21 14:57:03 - INFO -   RHS range        [9e-01, 3e+02]
2026-06-21 14:57:03 - INFO - 
2026-06-21 14:57:03 - INFO - Presolved: 1350 rows, 568 columns, 4744 nonzeros
2026-06-21 14:57:03 - INFO - 
2026-06-21 14:57:03 - INFO - Continuing optimization...
2026-06-21 14:57:03 - INFO - 
2026-06-21 14:57:04 - INFO -  1009998 51333   10.70788   33   65          -    9.50693      -  50.7  300s
2026-06-21 14:57:09 - INFO -  1030018 46786    9.75557   33   51          -    9.66093      -  50.6  305s
2026-06-21 14:57:13 - INFO -  1043363 43130   10.42581   34   60          -    9.77418      -  50.6  310s
2026-06-21 14:57:18 - INFO -  1065622 36013 infeasible   34               -    9.99478      -  50.6  315s
2026-06-21 14:57:23 - INFO -  1086464 28026 infeasible   37               -   10.24968      -  50.5  320s
2026-06-21 14:57:29 - INFO -  1098668 22935 infeasible   39               -   10.44609      -  50.5  325s
2026-06-21 14:57:33 - INFO -  1104015 20566   11.25069   35   52          -   10.58602      -  50.4  330s
2026-06-21 14:57:39 - INFO -  1105790 19564 infeasible   43               -   10.62860      -  50.4  335s
2026-06-21 14:57:43 - INFO -  1114194 13826 infeasible   43               -   10.72027      -  50.4  340s
2026-06-21 14:57:48 - INFO -  1134466  2788 infeasible   37               -   11.85650      -  50.2  345s
2026-06-21 14:57:50 - INFO - 
2026-06-21 14:57:50 - INFO - Cutting planes:
2026-06-21 14:57:50 - INFO -   Learned: 92
2026-06-21 14:57:50 - INFO -   Gomory: 272
2026-06-21 14:57:50 - INFO -   Lift-and-project: 128
2026-06-21 14:57:50 - INFO -   Cover: 62
2026-06-21 14:57:50 - INFO -   Implied bound: 12
2026-06-21 14:57:50 - INFO -   MIR: 173
2026-06-21 14:57:50 - INFO -   Mixing: 4
2026-06-21 14:57:50 - INFO -   StrongCG: 4
2026-06-21 14:57:50 - INFO -   Flow cover: 958
2026-06-21 14:57:50 - INFO -   GUB cover: 1
2026-06-21 14:57:50 - INFO -   Inf proof: 697
2026-06-21 14:57:50 - INFO -   Zero half: 9
2026-06-21 14:57:50 - INFO -   RLT: 13
2026-06-21 14:57:50 - INFO -   Relax-and-lift: 18
2026-06-21 14:57:50 - INFO - 
2026-06-21 14:57:50 - INFO - Explored 1138813 nodes (57132310 simplex iterations) in 346.34 seconds (647.64 work units)
2026-06-21 14:57:50 - INFO - Most recent optimization runtime was 46.30 seconds (107.96 work units)
2026-06-21 14:57:50 - INFO - Thread count was 28 (of 28 available processors)
2026-06-21 14:57:50 - INFO - 
2026-06-21 14:57:50 - INFO - Solution count 0
2026-06-21 14:57:50 - INFO - 
2026-06-21 14:57:50 - INFO - Model is infeasible or unbounded
2026-06-21 14:57:50 - INFO - Best objective -, best bound -, gap -
2026-06-21 14:57:50 - INFO - Set parameter TimeLimit to value 3600
2026-06-21 14:57:50 - INFO - Set parameter MIPGap to value 0.8
2026-06-21 14:57:50 - INFO - Set parameter MIPFocus to value 3
2026-06-21 14:57:50 - INFO - Set parameter Heuristics to value 0.5
2026-06-21 14:57:50 - INFO - Set parameter LogToConsole to value 1
2026-06-21 14:57:50 - INFO - Gurobi Optimizer version 13.0.1 build v13.0.1rc0 (linux64 - "Ubuntu 20.04.6 LTS")
2026-06-21 14:57:50 - INFO - 
2026-06-21 14:57:50 - INFO - CPU model: AMD Ryzen 9 9950X3D 16-Core Processor, instruction set [SSE2|AVX|AVX2|AVX512]
2026-06-21 14:57:50 - INFO - Thread count: 14 physical cores, 28 logical processors, using up to 28 threads
2026-06-21 14:57:50 - INFO - 
2026-06-21 14:57:50 - INFO - Non-default parameters:
2026-06-21 14:57:50 - INFO - TimeLimit  3600
2026-06-21 14:57:50 - INFO - MIPGap  0.8
2026-06-21 14:57:50 - INFO - Heuristics  0.5
2026-06-21 14:57:50 - INFO - MIPFocus  3
2026-06-21 14:57:50 - INFO - 
2026-06-21 14:57:50 - INFO - Academic license 2756663 - for non-commercial use only - registered to hu___@sjtu.edu.cn
2026-06-21 14:57:50 - INFO - Optimize a model with 1470 rows, 672 columns and 5013 nonzeros (Min)
2026-06-21 14:57:50 - INFO - Model fingerprint: 0x00d1ae4e
2026-06-21 14:57:50 - INFO - Model has 4 linear objective coefficients
2026-06-21 14:57:50 - INFO - Variable types: 269 continuous, 403 integer (403 binary)
2026-06-21 14:57:50 - INFO - Coefficient statistics:
2026-06-21 14:57:50 - INFO -   Matrix range     [3e-01, 8e+03]
2026-06-21 14:57:50 - INFO -   Objective range  [7e-06, 8e-02]
2026-06-21 14:57:50 - INFO -   Bounds range     [9e-01, 2e+07]
2026-06-21 14:57:50 - INFO -   RHS range        [9e-01, 3e+02]
2026-06-21 14:57:50 - INFO - 
2026-06-21 14:57:50 - INFO - Presolved: 1350 rows, 568 columns, 4744 nonzeros
2026-06-21 14:57:50 - INFO - 
2026-06-21 14:57:50 - INFO - Continuing optimization...
2026-06-21 14:57:50 - INFO - 
2026-06-21 14:57:50 - INFO - 
2026-06-21 14:57:50 - INFO - Cutting planes:
2026-06-21 14:57:50 - INFO -   Learned: 92
2026-06-21 14:57:50 - INFO -   Gomory: 272
2026-06-21 14:57:50 - INFO -   Lift-and-project: 128
2026-06-21 14:57:50 - INFO -   Cover: 62
2026-06-21 14:57:50 - INFO -   Implied bound: 12
2026-06-21 14:57:50 - INFO -   MIR: 173
2026-06-21 14:57:50 - INFO -   Mixing: 4
2026-06-21 14:57:50 - INFO -   StrongCG: 4
2026-06-21 14:57:50 - INFO -   Flow cover: 958
2026-06-21 14:57:50 - INFO -   GUB cover: 1
2026-06-21 14:57:50 - INFO -   Inf proof: 697
2026-06-21 14:57:50 - INFO -   Zero half: 9
2026-06-21 14:57:50 - INFO -   RLT: 13
2026-06-21 14:57:50 - INFO -   Relax-and-lift: 18
2026-06-21 14:57:50 - INFO - 
2026-06-21 14:57:50 - INFO - Explored 1138813 nodes (57132310 simplex iterations) in 346.34 seconds (647.64 work units)
2026-06-21 14:57:50 - INFO - Most recent optimization runtime was 0.00 seconds (0.00 work units)
2026-06-21 14:57:50 - INFO - Thread count was 28 (of 28 available processors)
2026-06-21 14:57:50 - INFO - 
2026-06-21 14:57:50 - INFO - Solution count 0
2026-06-21 14:57:50 - INFO - 
2026-06-21 14:57:50 - INFO - Model is infeasible or unbounded
2026-06-21 14:57:50 - INFO - Best objective -, best bound -, gap -
2026-06-21 14:57:50 - INFO - 
EMIB returned 0 solution(s) (max 1).
  10.42581   34   60          -    9.77418      -  50.6  310s
 1065622 36013 infeasible   34               -    9.99478      -  50.6  315s
 1086464 28026 infeasible   37               -   10.24968      -  50.5  320s
 1098668 22935 infeasible   39               -   10.44609      -  50.5  325s
 1104015 20566   11.25069   35   52          -   10.58602      -  50.4  330s
 1105790 19564 infeasible   43               -   10.62860      -  50.4  335s
 1114194 13826 infeasible   43               -   10.72027      -  50.4  340s
 1134466  2788 infeasible   37               -   11.85650      -  50.2  345s

Cutting planes:
  Learned: 92
  Gomory: 272
  Lift-and-project: 128
  Cover: 62
  Implied bound: 12
  MIR: 173
  Mixing: 4
  StrongCG: 4
  Flow cover: 958
  GUB cover: 1
  Inf proof: 697
  Zero half: 9
  RLT: 13
  Relax-and-lift: 18

Explored 1138813 nodes (57132310 simplex iterations) in 346.34 seconds (647.64 work units)
Most recent optimization runtime was 46.30 seconds (107.96 work units)
Thread count was 28 (of 28 available processors)

Solution count 0

Model is infeasible or unbounded
Best objective -, best bound -, gap -
[EMIB] No feasible solution: MIPGap=0.3, status=4, time=46.31s, SolCount=0
[EMIB] Phase 2 no feasible solution, switching to phase 3 MIPGap=0.8.
Set parameter TimeLimit to value 3600
Set parameter MIPGap to value 0.8
Set parameter MIPFocus to value 3
Set parameter Heuristics to value 0.5
Set parameter LogToConsole to value 1
Gurobi Optimizer version 13.0.1 build v13.0.1rc0 (linux64 - "Ubuntu 20.04.6 LTS")

CPU model: AMD Ryzen 9 9950X3D 16-Core Processor, instruction set [SSE2|AVX|AVX2|AVX512]
Thread count: 14 physical cores, 28 logical processors, using up to 28 threads

Non-default parameters:
TimeLimit  3600
MIPGap  0.8
Heuristics  0.5
MIPFocus  3

Academic license 2756663 - for non-commercial use only - registered to hu___@sjtu.edu.cn
Optimize a model with 1470 rows, 672 columns and 5013 nonzeros (Min)
Model fingerprint: 0x00d1ae4e
Model has 4 linear objective coefficients
Variable types: 269 continuous, 403 integer (403 binary)
Coefficient statistics:
  Matrix range     [3e-01, 8e+03]
  Objective range  [7e-06, 8e-02]
  Bounds range     [9e-01, 2e+07]
  RHS range        [9e-01, 3e+02]

Presolved: 1350 rows, 568 columns, 4744 nonzeros

Continuing optimization...


Cutting planes:
  Learned: 92
  Gomory: 272
  Lift-and-project: 128
  Cover: 62
  Implied bound: 12
  MIR: 173
  Mixing: 4
  StrongCG: 4
  Flow cover: 958
  GUB cover: 1
  Inf proof: 697
  Zero half: 9
  RLT: 13
  Relax-and-lift: 18

Explored 1138813 nodes (57132310 simplex iterations) in 346.34 seconds (647.64 work units)
Most recent optimization runtime was 0.00 seconds (0.00 work units)
Thread count was 28 (of 28 available processors)

Solution count 0

Model is infeasible or unbounded
Best objective -, best bound -, gap -
[EMIB] No feasible solution: MIPGap=0.8, status=4, time=0.00s, SolCount=0
[EMIB] Search failed, no feasible solution
  ✓ EMIB: 0 solution(s)
